



































































































41 5 48 62 54 
63 13 3 68 10 61 
59 53 51 42 37 
27 47 67 14 4 
57 12 21 76 6 
73 18 17 32 33 15 
7 64 35 9 28 
8 2 20 45 50 
55 38 52 40 70 
58 0 26 71 65 
1 23 24 22 44 
16 43 74 30 46 
39 75 36 19 34 56 
29 60 31 72 49 
11 66 25 69 
